Maximize
 obj: 0 X1
Subject To
 c1:
  + 1 X62 + 1 X3 + 1 X55 + 1 X18 + 1 X59
  <= 1
 c2:
  + 1 X42 + 1 X3 + 1 X85 + 1 X27 + 1 X90 + 1 X80 + 1 X58 + 1 X43
  + 1 X8 + 1 X95 + 1 X2
  <= 1
 c3:
  + 1 X63 + 1 X72 + 1 X24 + 1 X33 + 1 X88 + 1 X100 + 1 X68 + 1 X10
  + 1 X69 + 1 X16 + 1 X29 + 1 X58 + 1 X4 + 1 X42 + 1 X71 + 1 X62
  + 1 X46 + 1 X40 + 1 X57
  <= 1
 c4:
  + 1 X8 + 1 X77 + 1 X53 + 1 X79
  <= 1
 c5:
  + 1 X68 + 1 X94 + 1 X51 + 1 X44 + 1 X22 + 1 X80 + 1 X23 + 1 X40
  + 1 X41 + 1 X89 + 1 X96
  <= 1
 c6:
  + 1 X70 + 1 X47 + 1 X38 + 1 X49 + 1 X60 + 1 X37 + 1 X15 + 1 X16
  + 1 X68 + 1 X17 + 1 X80 + 1 X81
  <= 1
 c7:
  + 1 X82 + 1 X66 + 1 X80 + 1 X15 + 1 X13 + 1 X30 + 1 X17
  <= 1
 c8:
  + 1 X74 + 1 X78 + 1 X100 + 1 X65 + 1 X40 + 1 X84 + 1 X68 + 1 X70
  + 1 X45 + 1 X50 + 1 X28 + 1 X52 + 1 X72 + 1 X2 + 1 X30 + 1 X54
  + 1 X58
  <= 1
 c9:
  + 1 X10 + 1 X46 + 1 X84 + 1 X18 + 1 X11 + 1 X69 + 1 X83 + 1 X50
  + 1 X42 + 1 X77 + 1 X60 + 1 X45 + 1 X54 + 1 X33 + 1 X22 + 1 X71
  + 1 X34
  <= 1
 c10:
  + 1 X21 + 1 X38 + 1 X78 + 1 X87 + 1 X54 + 1 X74 + 1 X19 + 1 X22
  + 1 X32 + 1 X62 + 1 X91 + 1 X23 + 1 X10 + 1 X41 + 1 X64 + 1 X86
  + 1 X37 + 1 X51 + 1 X59 + 1 X82
  <= 1
 c11:
  + 1 X15 + 1 X57 + 1 X41
  <= 1
 c12:
  + 1 X96 + 1 X36 + 1 X12 + 1 X71 + 1 X88 + 1 X39 + 1 X67 + 1 X20
  + 1 X57 + 1 X98 + 1 X77 + 1 X99 + 1 X72 + 1 X44 + 1 X51
  <= 1
 c13:
  + 1 X11 + 1 X79 + 1 X27 + 1 X32 + 1 X87 + 1 X68 + 1 X41 + 1 X4
  + 1 X93 + 1 X38 + 1 X62 + 1 X86 + 1 X36 + 1 X70 + 1 X65 + 1 X40
  + 1 X46
  <= 1
 c14:
  + 1 X49 + 1 X60 + 1 X78 + 1 X100 + 1 X97 + 1 X59 + 1 X83 + 1 X90
  + 1 X99 + 1 X50 + 1 X2 + 1 X28 + 1 X96 + 1 X46 + 1 X37 + 1 X51
  <= 1
 c15:
  + 1 X53 + 1 X14 + 1 X75 + 1 X73 + 1 X92 + 1 X98 + 1 X28 + 1 X72
  + 1 X19 + 1 X22 + 1 X18 + 1 X3 + 1 X8
  <= 1
 c16:
  + 1 X38 + 1 X26 + 1 X52 + 1 X63 + 1 X79 + 1 X41 + 1 X50 + 1 X40
  + 1 X17
  <= 1
 c17:
  + 1 X9 + 1 X14 + 1 X13 + 1 X84 + 1 X58 + 1 X100 + 1 X28 + 1 X31
  + 1 X94 + 1 X18 + 1 X93 + 1 X95 + 1 X73 + 1 X70 + 1 X41
  <= 1
 c18:
  + 1 X43 + 1 X41 + 1 X55 + 1 X34
  <= 1
 c19:
  + 1 X26 + 1 X52 + 1 X60 + 1 X55
  <= 1
 c20:
  + 1 X95 + 1 X78 + 1 X67 + 1 X55 + 1 X84 + 1 X34 + 1 X98 + 1 X17
  + 1 X48 + 1 X24 + 1 X30 + 1 X18 + 1 X38 + 1 X35 + 1 X88 + 1 X56
  <= 1
 obj1:
  + 82 X1 + 22 X2 + 70 X3 + 52 X4 + 46 X5 + 89 X6 + 100 X7 + 88 X8
  + 99 X9 + 30 X10 + 29 X11 + 52 X12 + 52 X13 + 91 X14 + 55 X15 + 62 X16
  + 6 X17 + 49 X18 + 2 X19 + 44 X20 + 89 X21 + 61 X22 + 27 X23 + 28 X24
  + 97 X25 + 63 X26 + 62 X27 + 30 X28 + 16 X29 + 73 X30 + 26 X31 + 79 X32
  + 29 X33 + 15 X34 + 87 X35 + 18 X36 + 37 X37 + 17 X38 + 41 X39 + 85 X40
  + 19 X41 + 86 X42 + 12 X43 + 29 X44 + 38 X45 + 28 X46 + 47 X47 + 82 X48
  + 77 X49 + 56 X50 + 89 X51 + 47 X52 + 62 X53 + 76 X54 + 1 X55 + 10 X56
  + 26 X57 + 80 X58 + 50 X59 + 24 X60 + 17 X61 + 19 X62 + 58 X63 + 67 X64
  + 48 X65 + 85 X66 + 74 X67 + 8 X68 + 59 X69 + 92 X70 + 90 X71 + 19 X72
  + 36 X73 + 70 X74 + 75 X75 + 26 X76 + 79 X77 + 4 X78 + 59 X79 + 4 X80
  + 13 X81 + 50 X82 + 46 X83 + 32 X84 + 29 X85 + 14 X86 + 51 X87 + 58 X88
  + 40 X89 + 32 X90 + 22 X91 + 84 X92 + 60 X93 + 70 X94 + 21 X95 + 42 X96
  + 11 X97 + 27 X98 + 82 X99 + 82 X100
  >= 1
 obj2:
  + 99 X1 + 47 X2 + 35 X3 + 2 X4 + 38 X5 + 75 X6 + 85 X7 + 14 X8
  + 53 X9 + 52 X10 + 61 X11 + 51 X12 + 73 X13 + 64 X14 + 65 X15 + 90 X16
  + 8 X17 + 60 X18 + 93 X19 + 100 X20 + 38 X21 + 53 X22 + 96 X23 + 84 X24
  + 5 X25 + 14 X26 + 18 X27 + 49 X28 + 12 X29 + 8 X30 + 69 X31 + 52 X32
  + 54 X33 + 66 X34 + 75 X35 + 58 X36 + 69 X37 + 77 X38 + 17 X39 + 36 X40
  + 17 X41 + 51 X42 + 74 X43 + 85 X44 + 2 X45 + 98 X46 + 70 X47 + 88 X48
  + 46 X49 + 57 X50 + 56 X51 + 36 X52 + 55 X53 + 34 X54 + 22 X55 + 52 X56
  + 76 X57 + 13 X58 + 49 X59 + 73 X60 + 4 X61 + 46 X62 + 39 X63 + 37 X64
  + 85 X65 + 28 X66 + 45 X67 + 5 X68 + 49 X69 + 49 X70 + 51 X71 + 79 X72
  + 93 X73 + 52 X74 + 78 X75 + 63 X76 + 80 X77 + 40 X78 + 35 X79 + 87 X80
  + 77 X81 + 26 X82 + 28 X83 + 91 X84 + 95 X85 + 64 X86 + 100 X87 + 69 X88
  + 6 X89 + 37 X90 + 79 X91 + 90 X92 + 47 X93 + 11 X94 + 63 X95 + 39 X96
  + 25 X97 + 58 X98 + 15 X99 + 62 X100
  >= 2
 obj3:
  + 91 X1 + 43 X2 + 16 X3 + 10 X4 + 89 X5 + 72 X6 + 31 X7 + 89 X8
  + 67 X9 + 100 X10 + 2 X11 + 81 X12 + 23 X13 + 31 X14 + 10 X15 + 51 X16
  + 96 X17 + 4 X18 + 33 X19 + 21 X20 + 72 X21 + 32 X22 + 83 X23 + 61 X24
  + 63 X25 + 78 X26 + 16 X27 + 80 X28 + 96 X29 + 27 X30 + 18 X31 + 32 X32
  + 57 X33 + 84 X34 + 23 X35 + 72 X36 + 77 X37 + 58 X38 + 29 X39 + 84 X40
  + 94 X41 + 89 X42 + 9 X43 + 94 X44 + 43 X45 + 76 X46 + 86 X47 + 51 X48
  + 85 X49 + 47 X50 + 89 X51 + 72 X52 + 90 X53 + 46 X54 + 86 X55 + 9 X56
  + 33 X57 + 29 X58 + 78 X59 + 46 X60 + 41 X61 + 30 X62 + 72 X63 + 97 X64
  + 95 X65 + 53 X66 + 24 X67 + 56 X68 + 8 X69 + 45 X70 + 45 X71 + 26 X72
  + 2 X73 + 69 X74 + 51 X75 + 12 X76 + 8 X77 + 100 X78 + 78 X79 + 22 X80
  + 99 X81 + 91 X82 + 51 X83 + 63 X84 + 4 X85 + 55 X86 + 53 X87 + 81 X88
  + 32 X89 + 92 X90 + 51 X91 + 41 X92 + 73 X93 + 76 X94 + 37 X95 + 30 X96
  + 5 X97 + 40 X98 + 25 X99 + 80 X100
  >= 3
 obj4:
  + 38 X1 + 54 X2 + 99 X3 + 82 X4 + 72 X5 + 29 X6 + 73 X7 + 12 X8
  + 97 X9 + 6 X10 + 64 X11 + 20 X12 + 84 X13 + 62 X14 + 20 X15 + 30 X16
  + 57 X17 + 34 X18 + 91 X19 + 66 X20 + 32 X21 + 57 X22 + 80 X23 + 44 X24
  + 31 X25 + 93 X26 + 76 X27 + 38 X28 + 92 X29 + 63 X30 + 16 X31 + 85 X32
  + 4 X33 + 70 X34 + 80 X35 + 50 X36 + 98 X37 + 28 X38 + 38 X39 + 16 X40
  + 70 X41 + 77 X42 + 37 X43 + 20 X44 + 84 X45 + 14 X46 + 39 X47 + 53 X48
  + 52 X49 + 81 X50 + 83 X51 + 66 X52 + 26 X53 + 11 X54 + 93 X55 + 13 X56
  + 83 X57 + 43 X58 + 88 X59 + 76 X60 + 5 X61 + 47 X62 + 92 X63 + 1 X64
  + 6 X65 + 84 X66 + 5 X67 + 90 X68 + 80 X69 + 16 X70 + 4 X71 + 6 X72
  + 6 X73 + 18 X74 + 26 X75 + 55 X76 + 65 X77 + 41 X78 + 73 X79 + 99 X80
  + 41 X81 + 61 X82 + 65 X83 + 51 X84 + 41 X85 + 46 X86 + 64 X87 + 23 X88
  + 59 X89 + 65 X90 + 16 X91 + 42 X92 + 74 X93 + 6 X94 + 6 X95 + 43 X96
  + 69 X97 + 16 X98 + 97 X99 + 56 X100
  >= 4
Binary
 X1
 X2
 X3
 X4
 X5
 X6
 X7
 X8
 X9
 X10
 X11
 X12
 X13
 X14
 X15
 X16
 X17
 X18
 X19
 X20
 X21
 X22
 X23
 X24
 X25
 X26
 X27
 X28
 X29
 X30
 X31
 X32
 X33
 X34
 X35
 X36
 X37
 X38
 X39
 X40
 X41
 X42
 X43
 X44
 X45
 X46
 X47
 X48
 X49
 X50
 X51
 X52
 X53
 X54
 X55
 X56
 X57
 X58
 X59
 X60
 X61
 X62
 X63
 X64
 X65
 X66
 X67
 X68
 X69
 X70
 X71
 X72
 X73
 X74
 X75
 X76
 X77
 X78
 X79
 X80
 X81
 X82
 X83
 X84
 X85
 X86
 X87
 X88
 X89
 X90
 X91
 X92
 X93
 X94
 X95
 X96
 X97
 X98
 X99
 X100
End
